(declare-const X String)
; /\x2edir([\?\x5c\x2f]|$)/smiU
(assert (str.in_re X (re.++ (str.to_re "/.dir") (re.union (str.to_re "?") (str.to_re "\u{5c}") (str.to_re "/")) (str.to_re "/smiU\u{a}"))))
; Toolbar\s+\x2APORT3\x2A\d+Host\x3AconfigINTERNAL\.ini
(assert (str.in_re X (re.++ (str.to_re "Toolbar") (re.+ (re.union (str.to_re " ") (str.to_re "\u{9}") (str.to_re "\u{a}") (str.to_re "\u{c}") (str.to_re "\u{d}"))) (str.to_re "*PORT3*") (re.+ (re.range "0" "9")) (str.to_re "Host:configINTERNAL.ini\u{a}"))))
; ^((\d{1,3}(,\d{3})*)|(\d{1,3}))$
(assert (str.in_re X (re.++ (re.union (re.++ ((_ re.loop 1 3) (re.range "0" "9")) (re.* (re.++ (str.to_re ",") ((_ re.loop 3 3) (re.range "0" "9"))))) ((_ re.loop 1 3) (re.range "0" "9"))) (str.to_re "\u{a}"))))
(check-sat)
